DIMENSION :22
NODE_COORD_SECTION
1 -44.21890216167937 70.95617122376808
2 -25.120629299310693 39.28382783188667
3 74.27669043600639 0.2722954572604408
4 -24.49134283654257 -88.3632081298093
5 95.43004516273857 39.84591030370501
6 -50.109942244776626 -8.163838240065886
7 -30.470218054433616 -53.94267191554975
8 -24.2213234830231 -92.298146708775
9 51.28797976361389 32.146772482935035
10 40.30014679670063 -78.42843435533602
11 -93.20889952151555 -20.04987978933235
12 -96.76177648925419 79.31270402721265
13 17.787695904993583 54.12431695351637
14 -4.727901754633109 -99.75744172377804
15 6.43908891325664 -49.75935608363849
16 -26.003353902393144 58.57316291706044
17 73.38585487175837 -70.58697359396913
18 95.91041221204705 18.911372833011626
19 -7.040608245764204 -55.33225988093897
20 -20.842263075250656 31.508742338170634
21 41.59452827004432 -51.95015561428664
22 29.662932732686727 67.36983277798944
EOF
